0 0 0 0
0 1 0 0
0 2 1 0
0 3 0 0
0 4 2 3
0 5 2 3
0 6 2 2
0 7 2 10
0 8 0 3
0 9 0 10
0 10 0 8
0 11 0 17
0 12 0 11
0 13 1 17
0 14 1 10
0 15 0 17
0 16 0 17
0 17 0 20
0 18 0 22
0 19 0 20
0 20 1 8
0 21 0 15
0 22 0 25
0 23 0 20
0 24 1 24
0 25 1 24
0 26 0 23
0 27 0 30
0 28 0 31
0 29 1 23
0 30 0 28
0 31 0 33
